p cnf 40 190
1 2 3 4 0
5 6 7 8 0
9 10 11 12 0
13 14 15 16 0
17 18 19 20 0
21 22 23 24 0
25 26 27 28 0
29 30 31 32 0
33 34 35 36 0
37 38 39 40 0
-1 -5 0
-1 -9 0
-1 -13 0
-1 -17 0
-1 -21 0
-1 -25 0
-1 -29 0
-1 -33 0
-1 -37 0
-5 -9 0
-5 -13 0
-5 -17 0
-5 -21 0
-5 -25 0
-5 -29 0
-5 -33 0
-5 -37 0
-9 -13 0
-9 -17 0
-9 -21 0
-9 -25 0
-9 -29 0
-9 -33 0
-9 -37 0
-13 -17 0
-13 -21 0
-13 -25 0
-13 -29 0
-13 -33 0
-13 -37 0
-17 -21 0
-17 -25 0
-17 -29 0
-17 -33 0
-17 -37 0
-21 -25 0
-21 -29 0
-21 -33 0
-21 -37 0
-25 -29 0
-25 -33 0
-25 -37 0
-29 -33 0
-29 -37 0
-33 -37 0
-2 -6 0
-2 -10 0
-2 -14 0
-2 -18 0
-2 -22 0
-2 -26 0
-2 -30 0
-2 -34 0
-2 -38 0
-6 -10 0
-6 -14 0
-6 -18 0
-6 -22 0
-6 -26 0
-6 -30 0
-6 -34 0
-6 -38 0
-10 -14 0
-10 -18 0
-10 -22 0
-10 -26 0
-10 -30 0
-10 -34 0
-10 -38 0
-14 -18 0
-14 -22 0
-14 -26 0
-14 -30 0
-14 -34 0
-14 -38 0
-18 -22 0
-18 -26 0
-18 -30 0
-18 -34 0
-18 -38 0
-22 -26 0
-22 -30 0
-22 -34 0
-22 -38 0
-26 -30 0
-26 -34 0
-26 -38 0
-30 -34 0
-30 -38 0
-34 -38 0
-3 -7 0
-3 -11 0
-3 -15 0
-3 -19 0
-3 -23 0
-3 -27 0
-3 -31 0
-3 -35 0
-3 -39 0
-7 -11 0
-7 -15 0
-7 -19 0
-7 -23 0
-7 -27 0
-7 -31 0
-7 -35 0
-7 -39 0
-11 -15 0
-11 -19 0
-11 -23 0
-11 -27 0
-11 -31 0
-11 -35 0
-11 -39 0
-15 -19 0
-15 -23 0
-15 -27 0
-15 -31 0
-15 -35 0
-15 -39 0
-19 -23 0
-19 -27 0
-19 -31 0
-19 -35 0
-19 -39 0
-23 -27 0
-23 -31 0
-23 -35 0
-23 -39 0
-27 -31 0
-27 -35 0
-27 -39 0
-31 -35 0
-31 -39 0
-35 -39 0
-4 -8 0
-4 -12 0
-4 -16 0
-4 -20 0
-4 -24 0
-4 -28 0
-4 -32 0
-4 -36 0
-4 -40 0
-8 -12 0
-8 -16 0
-8 -20 0
-8 -24 0
-8 -28 0
-8 -32 0
-8 -36 0
-8 -40 0
-12 -16 0
-12 -20 0
-12 -24 0
-12 -28 0
-12 -32 0
-12 -36 0
-12 -40 0
-16 -20 0
-16 -24 0
-16 -28 0
-16 -32 0
-16 -36 0
-16 -40 0
-20 -24 0
-20 -28 0
-20 -32 0
-20 -36 0
-20 -40 0
-24 -28 0
-24 -32 0
-24 -36 0
-24 -40 0
-28 -32 0
-28 -36 0
-28 -40 0
-32 -36 0
-32 -40 0
-36 -40 0
